% MIT License
%
% Copyright (c) 2021 Johan Ludde Wessén
%
% Permission is hereby granted, free of charge, to any person obtaining 
% a copy of this software and associated documentation files (the "Software"),
% to deal in the Software without restriction, including without limitation 
% the rights to use, copy, modify, merge, publish, distribute, sublicense, 
% and/or sell copies of the Software, and to permit persons to whom the 
% Software is furnished to do so, subject to the following conditions:
% 
% The above copyright notice and this permission notice shall be included 
% in all copies or substantial portions of the Software.
%
% THE SOFTWARE IS PROVIDED "AS IS", WITHOUT WARRANTY OF ANY KIND, 
% EXPRESS OR IMPLIED, INCLUDING BUT NOT LIMITED TO THE WARRANTIES OF
% MERCHANTABILITY, FITNESS FOR A PARTICULAR PURPOSE AND
% NONINFRINGEMENT. IN NO EVENT SHALL THE AUTHORS OR COPYRIGHT HOLDERS BE
% LIABLE FOR ANY CLAIM, DAMAGES OR OTHER LIABILITY, WHETHER IN AN ACTION
% OF CONTRACT, TORT OR OTHERWISE, ARISING FROM, OUT OF OR IN CONNECTION
% WITH THE SOFTWARE OR THE USE OR OTHER DEALINGS IN THE SOFTWARE.

%-----------------------------------------------------------------------------%
% Dual Arm Multi Capacity Multi Tool Scheduling / Routing
% Assembly Configuration
% Auto Generated by python script, authored by Johan Ludde Wessen 
%-----------------------------------------------------------------------------%


task_durations = [|31, 23, 26, 31, 34, 30, 46, 52, 48, 52, 47, 57,  6,  7,  4,  6,  6
                  |25, 23, 23, 27, 26, 31, 51, 55, 50, 42, 47, 63,  6,  7,  5,  5,  5
                  |];


TRAY_TASKS = 1..4;
CAMERA_TASKS = {  };
OUTPUT_TASKS = { 12 };


empty_gripper_tasks = 13..17;


gripper_pick_tasks_orders = [|1, 7, -1
|2, 8, -1
|3, 9, -1
|4, 10, -1
|5, 11, -1
|6, 12, -1
|];

suction_pick_tasks_orders = [||];

fixture_task_orders = [|7, 13, 8, 14, 5, -1, -1, -1
|9, 15, 10, 16, 11, 17, 6, -1
|];

